
Gurobi 12.0.2 (win64) logging started Wed Jun  4 16:57:57 2025

Set parameter LogFile to value "C:\Ioana\_uni\honours\slp\algorithm\Main_files\results\others\fatty_acids\Task_016_Sample004_irr_gurobi.log"
Gurobi Optimizer version 12.0.2 build v12.0.2rc0 (win64 - Windows 11.0 (26100.2))

CPU model: Intel(R) Core(TM) Ultra 5 125H, instruction set [SSE2|AVX|AVX2]
Thread count: 14 physical cores, 18 logical processors, using up to 18 threads

Non-default parameters:
TimeLimit  2200

Optimize a model with 47226 rows, 34498 columns and 146685 nonzeros
Model fingerprint: 0xcbce451f
Variable types: 17253 continuous, 17245 integer (17245 binary)
Coefficient statistics:
  Matrix range     [1e-04, 8e+04]
  Objective range  [4e-05, 1e+01]
  Bounds range     [1e+00, 1e+03]
  RHS range        [1e+00, 1e+00]
Presolve removed 30829 rows and 21546 columns
Presolve time: 0.51s
Presolved: 16397 rows, 12952 columns, 54568 nonzeros
Variable types: 6410 continuous, 6542 integer (6542 binary)
Found heuristic solution: objective 21.4249480

Root relaxation: objective 1.127208e+00, 12 iterations, 0.01 seconds (0.00 work units)

    Nodes    |    Current Node    |     Objective Bounds      |     Work
 Expl Unexpl |  Obj  Depth IntInf | Incumbent    BestBd   Gap | It/Node Time

     0     0    1.12721    0    1   21.42495    1.12721  94.7%     -    0s
H    0     0                       1.1418989    1.12721  1.29%     -    0s
     0     0    1.12721    0    1    1.14190    1.12721  1.29%     -    0s

Explored 1 nodes (12 simplex iterations) in 0.70 seconds (0.46 work units)
Thread count was 18 (of 18 available processors)

Solution count 2: 1.1419 21.4249 

Optimal solution found (tolerance 1.00e-04)
Best objective 1.141898864809e+00, best bound 1.141898864809e+00, gap 0.0000%
